c ! encoding i-pc 250
p cnf 379 481
113 -252 0
196 -253 0
32 -254 0
69 -255 0
256 0
257 -258 0
258 -259 0
202 -259 0
-224 -260 0
-202 -260 0
259 260 -261 0
261 -262 0
262 -264 0
263 -264 0
207 -265 0
202 -266 0
257 -266 0
266 -267 0
117 -267 0
261 -268 0
-117 -268 0
269 -270 0
-207 -271 0
273 -274 0
274 -275 0
47 -275 0
-26 -276 0
-47 -276 0
277 -278 0
228 -278 0
273 -279 0
279 -280 0
-228 -280 0
282 -283 0
283 -284 0
55 -284 0
-55 -285 0
-243 -287 0
287 -289 0
288 -289 0
289 -291 0
290 -291 0
291 -292 0
221 -292 0
-93 -293 0
-121 -293 0
-171 -293 0
243 -293 0
293 -294 0
-221 -294 0
292 294 -295 0
79 -296 0
114 -296 0
296 -298 0
297 -298 0
298 -299 0
141 -299 0
114 -300 0
297 -300 0
300 -301 0
79 -301 0
206 -303 0
302 -303 0
303 -304 0
-79 -304 0
301 304 -305 0
305 -306 0
-141 -306 0
295 -310 0
307 -310 0
308 -310 0
309 -310 0
76 -311 0
12 -312 0
313 -314 0
314 -315 0
-12 -315 0
-243 -317 0
317 -318 0
288 -318 0
318 -319 0
290 -319 0
319 -320 0
221 -320 0
293 -322 0
321 -322 0
322 -323 0
-221 -323 0
296 -325 0
141 -325 0
114 -326 0
79 -326 0
302 -327 0
327 -328 0
-79 -328 0
326 328 -329 0
329 -330 0
-141 -330 0
325 330 -331 0
316 -332 0
324 -332 0
331 -332 0
206 -332 0
333 -334 0
-76 -335 0
338 -345 0
339 -345 0
340 -345 0
341 -345 0
342 -345 0
343 -345 0
344 -345 0
272 -346 0
281 -346 0
286 -346 0
336 -346 0
345 -346 0
-69 -347 0
186 -349 0
-186 -350 0
-32 -354 0
95 -357 0
-95 -358 0
100 -360 0
-100 -361 0
-196 -364 0
-113 -366 0
135 -368 0
-135 -369 0
227 -371 0
-227 -372 0
231 -374 0
-231 -375 0
161 -377 0
-161 -378 0
-2 0
-3 0
4 0
5 0
6 0
7 0
8 0
9 0
10 0
-11 0
-13 0
-14 0
15 0
-16 0
-17 0
-18 0
-19 0
20 0
-21 0
22 0
23 0
-24 0
25 0
-27 0
28 0
29 0
-30 0
-31 0
33 0
34 0
35 0
-36 0
-37 0
38 0
-39 0
-40 0
-41 0
42 0
-43 0
-44 0
45 0
46 0
48 0
-49 0
51 0
52 0
53 0
-54 0
-58 0
59 0
-60 0
-61 0
-62 0
-63 0
64 0
-65 0
66 0
-67 0
-68 0
-70 0
71 0
72 0
-73 0
74 0
-77 0
-78 0
-80 0
-81 0
-82 0
83 0
-84 0
-85 0
-86 0
87 0
88 0
-89 0
-90 0
91 0
-92 0
-94 0
-96 0
98 0
-99 0
-101 0
102 0
103 0
-104 0
-105 0
106 0
-107 0
108 0
-109 0
-110 0
-111 0
112 0
-115 0
116 0
118 0
-119 0
-120 0
-122 0
123 0
124 0
-125 0
-126 0
-127 0
128 0
129 0
130 0
132 0
133 0
-134 0
-136 0
137 0
138 0
-139 0
140 0
-143 0
-144 0
145 0
146 0
-147 0
148 0
149 0
150 0
151 0
-152 0
-153 0
-154 0
155 0
157 0
-158 0
159 0
-160 0
162 0
-163 0
164 0
-165 0
-166 0
167 0
168 0
169 0
170 0
-172 0
-174 0
-175 0
-176 0
177 0
-178 0
179 0
-180 0
181 0
-182 0
-183 0
-184 0
185 0
187 0
-188 0
-189 0
-190 0
191 0
-192 0
-193 0
194 0
195 0
-197 0
198 0
-199 0
200 0
201 0
-203 0
204 0
-205 0
-208 0
-209 0
210 0
211 0
-213 0
214 0
215 0
216 0
217 0
218 0
-219 0
220 0
-222 0
223 0
225 0
226 0
-229 0
-230 0
-232 0
233 0
234 0
235 0
-236 0
-238 0
-239 0
-240 0
241 0
-242 0
244 0
-245 0
246 0
-247 0
248 0
249 0
250 0
-373 374 0
-368 370 0
-367 368 0
-364 365 0
-362 363 0
-359 360 0
-357 359 0
-354 355 0
-366 367 0
-349 351 0
-346 347 0
-377 379 0
-370 371 0
-337 346 0
-363 364 0
-327 328 0
-323 324 0
-322 323 0
-319 320 0
-314 315 0
-313 314 0
-237 313 0
-312 316 0
237 308 312 313 0
-306 307 0
-304 305 0
-302 303 327 0
-309 310 0
-300 301 0
-298 299 0
-297 298 300 0
-371 373 0
141 306 330 0
-295 310 0
-305 306 0
221 294 323 0
-320 324 0
-376 377 0
-206 297 303 332 0
-293 294 322 0
-79 296 301 326 0
171 293 0
-292 295 0
-291 292 0
-290 291 319 0
-321 322 0
-288 289 318 0
50 308 317 321 0
-307 310 0
-121 288 0
224 257 260 0
-365 366 0
-317 318 0
-287 289 0
-117 267 0
-316 332 0
-258 259 0
-318 319 0
26 273 276 0
-263 264 0
-310 311 0
55 285 0
202 260 0
57 333 0
-251 252 253 254 255 350 358 361 369 372 375 378 0
-1 263 270 0
-141 299 325 0
-262 264 0
-348 349 0
-294 295 0
-282 283 0
-243 293 0
-266 267 0
-259 261 0
-267 269 0
-256 258 274 283 314 327 0
-326 329 0
117 262 268 0
-26 273 0
114 302 0
-273 274 279 0
-355 356 0
-224 257 0
93 290 293 0
-274 275 0
1 263 0
-261 262 268 0
121 288 293 0
-308 310 0
-303 304 0
-325 331 0
-315 316 0
-202 259 266 0
12 309 315 0
79 304 328 0
-257 258 266 0
97 282 0
-360 362 0
-289 291 0
-324 332 0
-114 296 300 302 326 0
206 297 0
-296 298 325 0
-269 270 0
-279 280 0
-50 321 0
-270 271 0
-260 261 0
-356 357 0
47 276 0
-221 292 320 0
-228 278 0
-275 277 0
-276 277 0
-347 348 0
-55 284 0
228 280 0
-93 290 0
-353 354 0
-283 284 0
-329 330 0
-330 331 0
-331 332 0
-334 335 0
-47 275 279 0
-12 309 312 0
-328 329 0
-264 265 0
-333 334 0
-301 305 0
-352 353 0
-374 376 0
-332 334 0
-299 307 0
-215 352 0
-277 278 0
-268 269 0
-164 337 0
